p tw 196 230
1 2
2 109
3 14
4 5
5 6
6 7
7 8
8 9
9 10
10 11
11 12
11 132
12 13
13 15
14 25
15 16
16 17
16 132
17 18
18 19
19 20
20 21
21 22
22 23
23 24
24 26
24 31
25 36
26 27
27 28
28 29
29 30
30 31
30 33
31 32
32 33
33 34
34 35
35 37
36 47
37 38
38 39
39 40
39 57
40 41
41 42
42 43
42 57
43 44
44 45
45 46
46 48
47 58
48 49
48 57
49 50
50 51
50 53
51 52
52 53
52 57
53 54
54 55
55 56
56 104
57 59
58 69
58 102
59 60
59 67
60 61
61 62
62 63
63 64
64 65
65 66
66 67
66 104
67 68
68 70
69 80
70 71
71 104
72 73
73 74
73 90
74 75
75 76
75 90
76 77
77 78
78 79
79 81
80 91
81 82
82 83
82 85
83 84
84 104
85 86
86 87
87 88
88 89
89 104
90 92
91 102
91 175
92 93
93 94
93 95
94 95
95 96
96 97
96 104
97 98
97 104
98 99
99 100
99 104
100 101
101 103
102 110
103 104
104 105
105 106
106 107
107 108
109 120
110 111
111 112
111 123
112 113
113 114
114 115
115 116
116 117
117 118
117 119
118 119
118 112
119 121
120 131
121 122
122 175
123 124
124 125
124 128
125 126
126 127
127 128
127 72
128 129
129 130
130 132
131 142
132 133
133 134
134 135
135 136
135 158
136 137
137 138
138 139
139 140
140 141
141 143
142 153
143 144
144 145
144 154
145 146
146 147
146 154
147 148
148 149
149 150
150 151
151 152
152 138
153 164
154 155
155 156
156 157
157 5
158 159
159 160
160 161
161 162
162 163
162 165
163 165
164 175
165 166
166 167
166 171
167 168
168 169
169 170
170 171
170 173
171 172
172 173
173 174
174 176
174 5
175 186
176 177
177 178
178 179
179 180
179 5
180 181
181 182
182 183
183 184
184 185
185 187
186 3
187 188
188 189
189 190
190 191
190 196
191 192
192 193
192 196
193 194
194 195
195 182
196 4
